\* NBA *\
Maximize
OBJ: 36.001 x0 + 49.001 x1 + 0.001 x10 + 27.251 x100 + 16.251 x101
 + 0.001 x102 + 9.001 x103 + 24.501 x104 + 0.001 x105 + 0.001 x106
 + 0.001 x107 + 0.001 x108 + 0.001 x109 + 54.751 x11 + 11.751 x110
 + 0.001 x111 + 11.001 x112 + 0.001 x113 + 15.251 x114 + 8.251 x115
 + 0.001 x116 + 0.001 x117 + 5.251 x118 + 0.001 x119 + 35.251 x12 + 0.001 x120
 + 2.251 x121 + 28.001 x122 + 43.751 x123 + 0.001 x124 + 32.001 x125
 + 33.751 x126 + 30.751 x127 + 0.001 x128 + 21.001 x129 + 11.501 x13
 + 22.751 x130 + 21.501 x131 + 11.751 x132 + 0.001 x133 + 5.251 x134
 + 0.001 x135 + 9.251 x136 + 0.001 x137 + 0.001 x138 + 0.001 x139 + 30.251 x14
 + 5.001 x140 + 0.001 x141 + 9.501 x142 + 0.001 x143 + 3.001 x144 + 1.001 x145
 + 0.001 x146 + 29.001 x147 + 18.751 x148 + 21.001 x149 + 8.001 x15
 + 12.001 x150 + 33.751 x151 + 11.251 x152 + 13.251 x153 + 0.001 x154
 + 9.501 x155 + 35.751 x156 + 29.251 x157 + 42.001 x158 + 0.001 x159
 + 16.251 x16 + 38.501 x160 + 16.251 x161 + 8.501 x162 + 24.501 x163
 + 12.001 x164 + 36.751 x165 + 15.501 x166 + 14.751 x167 + 33.001 x168
 + 0.001 x169 + 16.001 x17 + 0.001 x170 + 15.751 x171 + 0.001 x172
 + 0.001 x173 + 21.251 x174 + 4.751 x175 + 9.001 x176 + 9.501 x177
 + 0.001 x178 + 0.001 x179 + 8.001 x18 + 5.251 x180 + 12.751 x19 + 34.001 x2
 + 0.001 x20 + 0.001 x21 + 4.501 x22 + 0.001 x23 + 0.001 x24 + 7.001 x25
 + 8.001 x26 + 4.751 x27 + 12.251 x28 + 2.751 x29 + 54.501 x3 + 0.001 x30
 + 0.001 x31 + 54.001 x32 + 42.001 x33 + 55.751 x34 + 58.501 x35 + 39.751 x36
 + 31.251 x37 + 32.751 x38 + 15.501 x39 + 0.001 x4 + 45.501 x40 + 17.251 x41
 + 13.251 x42 + 16.251 x43 + 45.501 x44 + 38.251 x45 + 15.751 x46 + 21.501 x47
 + 11.251 x48 + 3.251 x49 + 0.001 x5 + 0.001 x50 + 13.751 x51 + 12.001 x52
 + 54.751 x53 + 0.001 x54 + 15.251 x55 + 8.751 x56 + 19.001 x57 + 26.251 x58
 + 15.251 x59 + 3.251 x6 + 18.751 x60 + 0.001 x61 + 13.501 x62 + 6.251 x63
 + 0.001 x64 + 2.751 x65 + 41.751 x66 + 57.001 x67 + 18.001 x68 + 24.001 x69
 + 44.751 x7 + 0.001 x70 + 10.751 x71 + 20.501 x72 + 17.251 x73 + 0.001 x74
 + 0.001 x75 + 1.251 x76 + 0.001 x77 + 0.001 x78 + 0.001 x79 + 30.001 x8
 + 0.001 x80 + 21.001 x81 + 9.751 x82 + 0.001 x83 + 0.751 x84 + 0.001 x85
 + 18.001 x86 + 2.001 x87 + 11.501 x88 + 0.001 x89 + 38.001 x9 + 34.501 x90
 + 3.501 x91 + 0.001 x92 + 42.501 x93 + 0.001 x94 + 33.751 x95 + 26.501 x96
 + 26.751 x97 + 16.251 x98 + 46.251 x99
Subject To
_C1: 12700 x0 + 8400 x1 + 5900 x10 + 4800 x100 + 4400 x101 + 4000 x102
 + 3900 x103 + 3900 x104 + 3400 x105 + 3300 x106 + 3000 x107 + 3000 x108
 + 3000 x109 + 4700 x11 + 3000 x110 + 3000 x111 + 3000 x112 + 3000 x113
 + 3000 x114 + 3000 x115 + 3000 x116 + 3000 x117 + 3000 x118 + 3000 x119
 + 4700 x12 + 3000 x120 + 3000 x121 + 7700 x122 + 6000 x123 + 5400 x124
 + 4800 x125 + 4600 x126 + 4100 x127 + 3800 x128 + 3700 x129 + 4400 x13
 + 3400 x130 + 3400 x131 + 3300 x132 + 3000 x133 + 3000 x134 + 3000 x135
 + 3000 x136 + 3000 x137 + 3000 x138 + 3000 x139 + 4300 x14 + 3000 x140
 + 3000 x141 + 3000 x142 + 3000 x143 + 3000 x144 + 3000 x145 + 3000 x146
 + 7100 x147 + 4400 x148 + 4400 x149 + 3900 x15 + 3700 x150 + 3700 x151
 + 3300 x152 + 3200 x153 + 3000 x154 + 3000 x155 + 6600 x156 + 6500 x157
 + 6300 x158 + 5900 x159 + 3600 x16 + 5700 x160 + 4700 x161 + 3900 x162
 + 3900 x163 + 3700 x164 + 3500 x165 + 3400 x166 + 3300 x167 + 3000 x168
 + 3000 x169 + 3400 x17 + 3000 x170 + 3000 x171 + 3000 x172 + 3000 x173
 + 3000 x174 + 3000 x175 + 3000 x176 + 3000 x177 + 3000 x178 + 3000 x179
 + 3200 x18 + 3000 x180 + 3000 x19 + 8300 x2 + 3000 x20 + 3000 x21 + 3000 x22
 + 3000 x23 + 3000 x24 + 3000 x25 + 3000 x26 + 3000 x27 + 3000 x28 + 3000 x29
 + 8000 x3 + 3000 x30 + 3000 x31 + 11300 x32 + 8600 x33 + 7800 x34 + 7500 x35
 + 6400 x36 + 5600 x37 + 5100 x38 + 5000 x39 + 7200 x4 + 4400 x40 + 4000 x41
 + 3600 x42 + 3000 x43 + 9800 x44 + 9400 x45 + 4300 x46 + 3900 x47 + 3900 x48
 + 3000 x49 + 6800 x5 + 3000 x50 + 3000 x51 + 3000 x52 + 8700 x53 + 6000 x54
 + 5700 x55 + 4600 x56 + 4500 x57 + 4300 x58 + 3900 x59 + 6300 x6 + 3800 x60
 + 3600 x61 + 3500 x62 + 3000 x63 + 3000 x64 + 3000 x65 + 7900 x66 + 7600 x67
 + 5800 x68 + 4200 x69 + 6200 x7 + 3700 x70 + 3500 x71 + 3500 x72 + 3100 x73
 + 3000 x74 + 3000 x75 + 3000 x76 + 3000 x77 + 3000 x78 + 3000 x79 + 6200 x8
 + 3000 x80 + 3000 x81 + 3000 x82 + 3000 x83 + 3000 x84 + 3000 x85 + 3000 x86
 + 3000 x87 + 3000 x88 + 3000 x89 + 6100 x9 + 3000 x90 + 3000 x91 + 7900 x92
 + 6900 x93 + 5900 x94 + 5500 x95 + 5300 x96 + 5200 x97 + 4900 x98 + 4900 x99
 <= 50000
_C10: x32 + x33 + x34 + x35 + x36 + x37 + x38 + x39 + x40 + x41 + x42 + x43
 + x44 + x45 + x46 + x47 + x48 + x49 + x50 + x51 + x52 + x66 + x67 + x68 + x69
 + x70 + x71 + x72 + x73 + x74 + x75 + x76 + x77 + x78 + x79 + x80 + x81 + x82
 + x83 + x84 + x85 + x86 + x87 + x88 + x89 + x90 + x91 >= 1
_C11: x100 + x101 + x102 + x103 + x104 + x105 + x106 + x107 + x108 + x109
 + x110 + x111 + x112 + x113 + x114 + x115 + x116 + x117 + x118 + x119 + x120
 + x121 + x32 + x33 + x34 + x35 + x36 + x37 + x38 + x39 + x40 + x41 + x42
 + x43 + x92 + x93 + x94 + x95 + x96 + x97 + x98 + x99 <= 2
_C12: x100 + x101 + x102 + x103 + x104 + x105 + x106 + x107 + x108 + x109
 + x110 + x111 + x112 + x113 + x114 + x115 + x116 + x117 + x118 + x119 + x120
 + x121 + x32 + x33 + x34 + x35 + x36 + x37 + x38 + x39 + x40 + x41 + x42
 + x43 + x92 + x93 + x94 + x95 + x96 + x97 + x98 + x99 >= 1
_C13: x11 + x123 + x168 + x3 + x35 + x40 + x53 + x67 <= 4
_C14: x11 + x151 + x165 + x34 + x35 + x53 + x67 + x7 <= 4
_C15: x11 + x12 + x3 + x34 + x53 + x67 + x90 + x99 <= 4
_C16: x11 + x126 + x158 + x3 + x35 + x67 + x7 + x99 <= 4
_C17: x1 + x11 + x123 + x165 + x3 + x34 + x35 + x90 <= 4
_C18: x1 + x11 + x158 + x165 + x40 + x53 + x67 + x99 <= 4
_C19: x1 + x11 + x123 + x168 + x34 + x67 + x7 + x99 <= 4
_C2: x0 + x1 + x10 + x100 + x101 + x102 + x103 + x104 + x105 + x106 + x107
 + x108 + x109 + x11 + x110 + x111 + x112 + x113 + x114 + x115 + x116 + x117
 + x118 + x119 + x12 + x120 + x121 + x122 + x123 + x124 + x125 + x126 + x127
 + x128 + x129 + x13 + x130 + x131 + x132 + x133 + x134 + x135 + x136 + x137
 + x138 + x139 + x14 + x140 + x141 + x142 + x143 + x144 + x145 + x146 + x147
 + x148 + x149 + x15 + x150 + x151 + x152 + x153 + x154 + x155 + x156 + x157
 + x158 + x159 + x16 + x160 + x161 + x162 + x163 + x164 + x165 + x166 + x167
 + x168 + x169 + x17 + x170 + x171 + x172 + x173 + x174 + x175 + x176 + x177
 + x178 + x179 + x18 + x180 + x19 + x2 + x20 + x21 + x22 + x23 + x24 + x25
 + x26 + x27 + x28 + x29 + x3 + x30 + x31 + x32 + x33 + x34 + x35 + x36 + x37
 + x38 + x39 + x4 + x40 + x41 + x42 + x43 + x44 + x45 + x46 + x47 + x48 + x49
 + x5 + x50 + x51 + x52 + x53 + x54 + x55 + x56 + x57 + x58 + x59 + x6 + x60
 + x61 + x62 + x63 + x64 + x65 + x66 + x67 + x68 + x69 + x7 + x70 + x71 + x72
 + x73 + x74 + x75 + x76 + x77 + x78 + x79 + x8 + x80 + x81 + x82 + x83 + x84
 + x85 + x86 + x87 + x88 + x89 + x9 + x90 + x91 + x92 + x93 + x94 + x95 + x96
 + x97 + x98 + x99 = 8
_C20: x11 + x125 + x160 + x3 + x34 + x40 + x67 + x7 <= 4
_C21: x11 + x160 + x165 + x3 + x35 + x53 + x9 + x99 <= 4
_C22: x11 + x123 + x127 + x158 + x160 + x34 + x35 + x67 <= 4
_C23: x11 + x123 + x151 + x165 + x3 + x32 + x67 + x99 <= 4
_C24: x1 + x11 + x160 + x35 + x40 + x53 + x7 + x90 <= 4
_C25: x123 + x35 + x53 + x67 + x7 + x9 + x90 + x99 <= 4
_C26: x11 + x126 + x165 + x3 + x34 + x40 + x53 + x66 <= 4
_C27: x1 + x127 + x165 + x3 + x35 + x40 + x67 + x7 <= 4
_C28: x11 + x12 + x123 + x158 + x34 + x40 + x53 + x7 <= 4
_C29: x1 + x11 + x12 + x123 + x126 + x35 + x53 + x99 <= 4
_C3: x0 + x1 + x10 + x11 + x12 + x13 + x14 + x147 + x148 + x149 + x15 + x150
 + x151 + x152 + x153 + x154 + x155 + x16 + x17 + x18 + x19 + x2 + x20 + x21
 + x22 + x23 + x24 + x25 + x26 + x27 + x28 + x29 + x3 + x30 + x31 + x4 + x5
 + x6 + x7 + x8 + x9 <= 3
_C30: x11 + x125 + x158 + x35 + x53 + x67 + x90 + x93 <= 4
_C31: x11 + x127 + x14 + x35 + x53 + x66 + x67 + x99 <= 4
_C32: x1 + x11 + x123 + x160 + x3 + x40 + x66 + x99 <= 4
_C33: x11 + x127 + x168 + x3 + x34 + x35 + x66 + x7 <= 4
_C34: x123 + x158 + x165 + x3 + x34 + x40 + x67 + x9 <= 4
_C4: x0 + x1 + x10 + x11 + x12 + x13 + x14 + x147 + x148 + x149 + x15 + x150
 + x151 + x152 + x153 + x154 + x155 + x16 + x17 + x18 + x19 + x2 + x20 + x21
 + x22 + x23 + x24 + x25 + x26 + x27 + x28 + x29 + x3 + x30 + x31 + x4 + x5
 + x6 + x7 + x8 + x9 >= 1
_C5: x147 + x148 + x149 + x150 + x151 + x152 + x153 + x154 + x155 + x156
 + x157 + x158 + x159 + x160 + x161 + x162 + x163 + x164 + x165 + x166 + x167
 + x168 + x169 + x170 + x171 + x172 + x173 + x174 + x175 + x176 + x177 + x178
 + x179 + x180 + x53 + x54 + x55 + x56 + x57 + x58 + x59 + x60 + x61 + x62
 + x63 + x64 + x65 <= 3
_C6: x147 + x148 + x149 + x150 + x151 + x152 + x153 + x154 + x155 + x156
 + x157 + x158 + x159 + x160 + x161 + x162 + x163 + x164 + x165 + x166 + x167
 + x168 + x169 + x170 + x171 + x172 + x173 + x174 + x175 + x176 + x177 + x178
 + x179 + x180 + x53 + x54 + x55 + x56 + x57 + x58 + x59 + x60 + x61 + x62
 + x63 + x64 + x65 >= 1
_C7: x122 + x123 + x124 + x125 + x126 + x127 + x128 + x129 + x130 + x131
 + x132 + x133 + x134 + x135 + x136 + x137 + x138 + x139 + x140 + x141 + x142
 + x143 + x144 + x145 + x146 + x44 + x45 + x46 + x47 + x48 + x49 + x50 + x51
 + x52 + x53 + x54 + x55 + x56 + x57 + x58 + x59 + x60 + x61 + x62 + x63 + x64
 + x65 <= 3
_C8: x122 + x123 + x124 + x125 + x126 + x127 + x128 + x129 + x130 + x131
 + x132 + x133 + x134 + x135 + x136 + x137 + x138 + x139 + x140 + x141 + x142
 + x143 + x144 + x145 + x146 + x44 + x45 + x46 + x47 + x48 + x49 + x50 + x51
 + x52 + x53 + x54 + x55 + x56 + x57 + x58 + x59 + x60 + x61 + x62 + x63 + x64
 + x65 >= 1
_C9: x32 + x33 + x34 + x35 + x36 + x37 + x38 + x39 + x40 + x41 + x42 + x43
 + x44 + x45 + x46 + x47 + x48 + x49 + x50 + x51 + x52 + x66 + x67 + x68 + x69
 + x70 + x71 + x72 + x73 + x74 + x75 + x76 + x77 + x78 + x79 + x80 + x81 + x82
 + x83 + x84 + x85 + x86 + x87 + x88 + x89 + x90 + x91 <= 3
Binaries
x0
x1
x10
x100
x101
x102
x103
x104
x105
x106
x107
x108
x109
x11
x110
x111
x112
x113
x114
x115
x116
x117
x118
x119
x12
x120
x121
x122
x123
x124
x125
x126
x127
x128
x129
x13
x130
x131
x132
x133
x134
x135
x136
x137
x138
x139
x14
x140
x141
x142
x143
x144
x145
x146
x147
x148
x149
x15
x150
x151
x152
x153
x154
x155
x156
x157
x158
x159
x16
x160
x161
x162
x163
x164
x165
x166
x167
x168
x169
x17
x170
x171
x172
x173
x174
x175
x176
x177
x178
x179
x18
x180
x19
x2
x20
x21
x22
x23
x24
x25
x26
x27
x28
x29
x3
x30
x31
x32
x33
x34
x35
x36
x37
x38
x39
x4
x40
x41
x42
x43
x44
x45
x46
x47
x48
x49
x5
x50
x51
x52
x53
x54
x55
x56
x57
x58
x59
x6
x60
x61
x62
x63
x64
x65
x66
x67
x68
x69
x7
x70
x71
x72
x73
x74
x75
x76
x77
x78
x79
x8
x80
x81
x82
x83
x84
x85
x86
x87
x88
x89
x9
x90
x91
x92
x93
x94
x95
x96
x97
x98
x99
End
